67,  43,  95,  62,  34,  78,  41,  94, 100,  34,  20,  26,  49, 29,  38,  23,  88, 100,  60,  87,  72,  30,  33,  52,  76,  27, 59,  63,  85,  36,  31,  32,  57,  42,  31,  66,  41,  83,  89, 35,  44,  62,  87,  26,  39,  96,  57,  73,  66,  23, 100, 100, 71,  36,  32,  30,  74,  82,  54,  95,  79,  83,  27,  81,  66, 91,  76,  96,  56,  71,  87,  84,  55,  56,  72,  25,  33,  97, 28,  26,  48,  23,  40,  22,  64,  64,  75,  33,  52,  59,  68, 56,  48,  35,  38,  72,  86,  30,  71,  26